
Gurobi 6.5.2 (mac64) logging started Sat Apr  8 17:19:08 2017


Gurobi 6.5.2 (mac64) logging started Sat Apr  8 17:20:46 2017


Gurobi 6.5.2 (mac64) logging started Sat Apr  8 17:23:27 2017


Gurobi 6.5.2 (mac64) logging started Sat Apr  8 17:35:46 2017


Gurobi 6.5.2 (mac64) logging started Sat Apr  8 19:46:35 2017


Gurobi 6.5.2 (mac64) logging started Sat Apr  8 19:52:07 2017


Gurobi 6.5.2 (mac64) logging started Sat Apr  8 19:57:33 2017


Gurobi 6.5.2 (mac64) logging started Sat Apr  8 20:06:15 2017


Gurobi 6.5.2 (mac64) logging started Sat Apr  8 20:10:30 2017


Gurobi 6.5.2 (mac64) logging started Sat Apr  8 20:11:05 2017


Gurobi 6.5.2 (mac64) logging started Sun Apr  9 10:28:46 2017


Gurobi 6.5.2 (mac64) logging started Sun Apr  9 10:31:25 2017


Gurobi 6.5.2 (mac64) logging started Sun Apr  9 10:32:29 2017


Gurobi 6.5.2 (mac64) logging started Sun Apr  9 12:27:47 2017


Gurobi 6.5.2 (mac64) logging started Sun Apr  9 12:29:45 2017


Gurobi 6.5.2 (mac64) logging started Sun Apr  9 12:30:15 2017


Gurobi 6.5.2 (mac64) logging started Sun Apr  9 12:31:11 2017


Gurobi 6.5.2 (mac64) logging started Sun Apr  9 12:31:48 2017


Gurobi 6.5.2 (mac64) logging started Sun Apr  9 12:32:10 2017


Gurobi 6.5.2 (mac64) logging started Sun Apr  9 12:32:46 2017


Gurobi 6.5.2 (mac64) logging started Sun Apr  9 12:33:08 2017


Gurobi 6.5.2 (mac64) logging started Sun Apr  9 12:34:53 2017


Gurobi 6.5.2 (mac64) logging started Sun Apr  9 12:37:19 2017


Gurobi 6.5.2 (mac64) logging started Sun Apr  9 12:43:13 2017


Gurobi 6.5.2 (mac64) logging started Sun Apr  9 12:45:16 2017


Gurobi 6.5.2 (mac64) logging started Sun Apr  9 12:58:54 2017


Gurobi 6.5.2 (mac64) logging started Sun Apr  9 13:04:19 2017


Gurobi 6.5.2 (mac64) logging started Sun Apr  9 13:06:13 2017


Gurobi 6.5.2 (mac64) logging started Sun Apr  9 13:32:32 2017


Gurobi 6.5.2 (mac64) logging started Sun Apr  9 13:37:23 2017


Gurobi 6.5.2 (mac64) logging started Sun Apr  9 14:03:08 2017


Gurobi 6.5.2 (mac64) logging started Sun Apr  9 14:05:03 2017


Gurobi 6.5.2 (mac64) logging started Sun Apr  9 14:08:02 2017


Gurobi 6.5.2 (mac64) logging started Sun Apr  9 14:21:55 2017


Gurobi 6.5.2 (mac64) logging started Fri Apr 14 00:44:37 2017


Gurobi 6.5.2 (mac64) logging started Fri Apr 14 00:50:33 2017


Gurobi 6.5.2 (mac64) logging started Fri Apr 14 00:51:53 2017


Gurobi 6.5.2 (mac64) logging started Ven 14 avr 00:52:26 2017


Gurobi 6.5.2 (mac64) logging started Ven 14 avr 01:06:53 2017


Gurobi 6.5.2 (mac64) logging started Ven 14 avr 01:08:46 2017


Gurobi 6.5.2 (mac64) logging started Ven 14 avr 01:16:20 2017


Gurobi 6.5.2 (mac64) logging started Ven 14 avr 01:25:42 2017


Gurobi 6.5.2 (mac64) logging started Ven 14 avr 01:38:15 2017


Gurobi 6.5.2 (mac64) logging started Ven 14 avr 01:49:10 2017


Gurobi 6.5.2 (mac64) logging started Ven 14 avr 09:19:04 2017


Gurobi 6.5.2 (mac64) logging started Ven 14 avr 15:34:14 2017


Gurobi 6.5.2 (mac64) logging started Ven 14 avr 15:34:48 2017


Gurobi 6.5.2 (mac64) logging started Ven 14 avr 15:38:06 2017


Gurobi 6.5.2 (mac64) logging started Ven 14 avr 21:31:54 2017


Gurobi 6.5.2 (mac64) logging started Ven 14 avr 21:32:19 2017


Gurobi 6.5.2 (mac64) logging started Ven 14 avr 21:35:39 2017


Gurobi 6.5.2 (mac64) logging started Ven 14 avr 21:36:25 2017


Gurobi 6.5.2 (mac64) logging started Ven 14 avr 21:36:51 2017


Gurobi 6.5.2 (mac64) logging started Ven 14 avr 21:38:26 2017


Gurobi 6.5.2 (mac64) logging started Ven 14 avr 22:59:14 2017


Gurobi 6.5.2 (mac64) logging started Ven 14 avr 23:00:58 2017


Gurobi 6.5.2 (mac64) logging started Ven 14 avr 23:42:01 2017


Gurobi 6.5.2 (mac64) logging started Ven 14 avr 23:43:45 2017


Gurobi 6.5.2 (mac64) logging started Ven 14 avr 23:44:05 2017


Gurobi 6.5.2 (mac64) logging started Ven 14 avr 23:44:38 2017


Gurobi 6.5.2 (mac64) logging started Ven 14 avr 23:49:38 2017


Gurobi 6.5.2 (mac64) logging started Ven 14 avr 23:50:01 2017


Gurobi 6.5.2 (mac64) logging started Ven 14 avr 23:50:23 2017


Gurobi 6.5.2 (mac64) logging started Ven 14 avr 23:52:57 2017


Gurobi 6.5.2 (mac64) logging started Sam 15 avr 00:18:33 2017


Gurobi 6.5.2 (mac64) logging started Sam 15 avr 00:22:33 2017


Gurobi 6.5.2 (mac64) logging started Sam 15 avr 00:35:29 2017


Gurobi 6.5.2 (mac64) logging started Sam 15 avr 00:36:06 2017


Gurobi 6.5.2 (mac64) logging started Sam 15 avr 09:44:48 2017


Gurobi 6.5.2 (mac64) logging started Sam 15 avr 09:48:15 2017


Gurobi 6.5.2 (mac64) logging started Sam 15 avr 09:50:32 2017


Gurobi 6.5.2 (mac64) logging started Sam 15 avr 09:56:38 2017


Gurobi 6.5.2 (mac64) logging started Sam 15 avr 09:57:45 2017


Gurobi 6.5.2 (mac64) logging started Sam 15 avr 09:59:02 2017


Gurobi 6.5.2 (mac64) logging started Sam 15 avr 10:03:39 2017


Gurobi 6.5.2 (mac64) logging started Sam 15 avr 10:19:28 2017

